branch-and-cut/util/resultados/B/b08.sol
104.0
27
1 64
2 54
5 64
5 31
6 56
6 71
6 43
6 73
8 73
8 27
11 43
13 16
13 50
16 54
17 73
27 34
27 35
28 50
29 33
30 50
31 54
33 38
33 35
35 46
35 50
35 51
38 65
