branch-and-cut/util/resultados/B/b08.log
Set parameter Username
Academic license - for non-commercial use only - expires 2024-12-10
Set parameter LazyConstraints to value 1
Set parameter TimeLimit to value 600
Gurobi Optimizer version 10.0.0 build v10.0.0rc2 (linux64)

CPU model: Intel(R) Core(TM) i5-4590 CPU @ 3.30GHz, instruction set [SSE2|AVX|AVX2]
Thread count: 4 physical cores, 4 logical processors, using up to 4 threads

Optimize a model with 395 rows, 94 columns and 438 nonzeros
Model fingerprint: 0x697d707f
Variable types: 0 continuous, 94 integer (94 binary)
Coefficient statistics:
  Matrix range     [1e+00, 1e+00]
  Objective range  [1e+00, 1e+01]
  Bounds range     [1e+00, 1e+00]
  RHS range        [1e+00, 1e+00]
Presolve removed 380 rows and 2 columns
Presolve time: 0.00s
Presolved: 15 rows, 92 columns, 49 nonzeros
Variable types: 0 continuous, 92 integer (92 binary)

Root relaxation: objective 4.000000e+01, 13 iterations, 0.00 seconds (0.00 work units)

    Nodes    |    Current Node    |     Objective Bounds      |     Work
 Expl Unexpl |  Obj  Depth IntInf | Incumbent    BestBd   Gap | It/Node Time

     0     0   40.00000    0    -          -   40.00000      -     -    0s
     0     0   41.00000    0    -          -   41.00000      -     -    0s
     0     0   45.00000    0    -          -   45.00000      -     -    0s
     0     0   47.00000    0    -          -   47.00000      -     -    0s
     0     0   48.00000    0    -          -   48.00000      -     -    0s
     0     0   49.00000    0    -          -   49.00000      -     -    0s
     0     0   49.00000    0    5          -   49.00000      -     -    0s
     0     0   66.00000    0    -          -   66.00000      -     -    0s
     0     0   67.00000    0    -          -   67.00000      -     -    0s
     0     0   68.00000    0    -          -   68.00000      -     -    0s
     0     0   68.00000    0    -          -   68.00000      -     -    0s
H    0     0                     130.0000000   68.50000  47.3%     -    0s
     0     0   68.50000    0    4  130.00000   68.50000  47.3%     -    0s
     0     0   76.00000    0    -  130.00000   76.00000  41.5%     -    0s
     0     0   78.00000    0    -  130.00000   78.00000  40.0%     -    0s
     0     0   78.00000    0    -  130.00000   78.00000  40.0%     -    0s
     0     0   78.00000    0    -  130.00000   78.00000  40.0%     -    0s
H    0     0                     113.0000000   78.00000  31.0%     -    0s
     0     0   78.00000    0    7  113.00000   78.00000  31.0%     -    0s
     0     0   82.00000    0    -  113.00000   82.00000  27.4%     -    0s
     0     0   82.00000    0    -  113.00000   82.00000  27.4%     -    0s
     0     0   82.33333    0    5  113.00000   82.33333  27.1%     -    0s
     0     0   85.00000    0    6  113.00000   85.00000  24.8%     -    0s
H    0     0                     105.0000000   86.50000  17.6%     -    0s
     0     0   86.50000    0   10  105.00000   86.50000  17.6%     -    0s
     0     2   88.77778    0   10  105.00000   88.77778  15.4%     -    1s
H    2     4                     104.0000000   89.00000  14.4%  12.0    1s

Cutting planes:
  User: 75
  Gomory: 2
  MIR: 1
  Lazy constraints: 118

Explored 513 nodes (5540 simplex iterations) in 3.62 seconds (0.12 work units)
Thread count was 4 (of 4 available processors)

Solution count 4: 104 105 113 130 

Optimal solution found (tolerance 1.00e-04)
Best objective 1.040000000000e+02, best bound 1.040000000000e+02, gap 0.0000%

User-callback calls 1450, time in user-callback 3.48 sec
